p edge 100 990
e 1 3
e 1 5
e 1 11
e 1 15
e 1 25
e 1 30
e 1 37
e 1 39
e 1 59
e 1 60
e 1 61
e 1 63
e 1 65
e 1 81
e 1 85
e 1 98
e 1 99
e 2 7
e 2 18
e 2 19
e 2 22
e 2 29
e 2 39
e 2 41
e 2 42
e 2 54
e 2 79
e 2 85
e 2 87
e 2 89
e 2 94
e 3 8
e 3 9
e 3 26
e 3 30
e 3 36
e 3 40
e 3 48
e 3 50
e 3 52
e 3 57
e 3 63
e 3 70
e 3 72
e 3 76
e 3 92
e 3 93
e 3 94
e 4 12
e 4 20
e 4 23
e 4 32
e 4 41
e 4 54
e 4 58
e 4 69
e 4 78
e 4 79
e 4 80
e 4 82
e 4 84
e 4 85
e 4 91
e 4 94
e 4 99
e 5 10
e 5 13
e 5 14
e 5 23
e 5 28
e 5 42
e 5 50
e 5 55
e 5 56
e 5 70
e 5 72
e 5 73
e 5 74
e 5 80
e 5 83
e 5 87
e 5 92
e 5 95
e 5 96
e 6 8
e 6 9
e 6 15
e 6 19
e 6 21
e 6 27
e 6 35
e 6 38
e 6 46
e 6 47
e 6 49
e 6 50
e 6 53
e 6 56
e 6 58
e 6 59
e 6 72
e 6 79
e 6 82
e 6 84
e 6 87
e 6 93
e 6 94
e 7 14
e 7 16
e 7 18
e 7 19
e 7 27
e 7 32
e 7 34
e 7 43
e 7 56
e 7 62
e 7 71
e 7 82
e 7 84
e 7 85
e 7 92
e 7 95
e 7 96
e 7 99
e 8 12
e 8 17
e 8 18
e 8 21
e 8 22
e 8 29
e 8 34
e 8 39
e 8 52
e 8 57
e 8 66
e 8 73
e 8 89
e 8 95
e 8 96
e 9 11
e 9 17
e 9 21
e 9 24
e 9 32
e 9 39
e 9 41
e 9 49
e 9 50
e 9 52
e 9 57
e 9 67
e 9 71
e 9 72
e 9 73
e 9 77
e 9 79
e 9 82
e 9 85
e 9 89
e 9 91
e 9 99
e 10 11
e 10 17
e 10 18
e 10 21
e 10 29
e 10 36
e 10 42
e 10 57
e 10 61
e 10 74
e 10 76
e 10 77
e 10 89
e 10 100
e 11 12
e 11 17
e 11 31
e 11 42
e 11 43
e 11 44
e 11 48
e 11 53
e 11 56
e 11 57
e 11 61
e 11 71
e 11 87
e 11 92
e 11 97
e 11 100
e 12 16
e 12 20
e 12 23
e 12 26
e 12 27
e 12 34
e 12 51
e 12 54
e 12 55
e 12 56
e 12 59
e 12 60
e 12 61
e 12 64
e 12 65
e 12 68
e 12 73
e 12 84
e 12 86
e 12 90
e 12 97
e 12 98
e 13 25
e 13 29
e 13 31
e 13 36
e 13 38
e 13 45
e 13 47
e 13 49
e 13 59
e 13 63
e 13 73
e 13 74
e 13 77
e 13 78
e 13 79
e 13 81
e 13 92
e 13 98
e 14 20
e 14 34
e 14 41
e 14 42
e 14 43
e 14 48
e 14 54
e 14 56
e 14 62
e 14 69
e 14 70
e 14 79
e 14 84
e 14 88
e 14 89
e 14 94
e 15 20
e 15 25
e 15 33
e 15 36
e 15 53
e 15 56
e 15 58
e 15 61
e 15 65
e 15 67
e 15 70
e 15 86
e 15 91
e 15 92
e 15 94
e 15 99
e 16 20
e 16 29
e 16 33
e 16 34
e 16 37
e 16 47
e 16 48
e 16 54
e 16 66
e 16 68
e 16 69
e 16 72
e 16 74
e 16 90
e 16 93
e 16 97
e 16 100
e 17 19
e 17 33
e 17 34
e 17 43
e 17 45
e 17 46
e 17 48
e 17 49
e 17 56
e 17 58
e 17 65
e 17 67
e 17 74
e 17 77
e 17 80
e 17 84
e 17 86
e 17 91
e 18 23
e 18 49
e 18 56
e 18 57
e 18 59
e 18 66
e 18 71
e 18 73
e 18 75
e 18 91
e 18 92
e 18 93
e 18 94
e 18 99
e 18 100
e 19 23
e 19 26
e 19 31
e 19 39
e 19 40
e 19 43
e 19 46
e 19 47
e 19 50
e 19 55
e 19 57
e 19 60
e 19 66
e 19 71
e 19 74
e 19 76
e 19 80
e 19 81
e 19 88
e 19 90
e 19 91
e 19 94
e 20 41
e 20 44
e 20 47
e 20 49
e 20 51
e 20 59
e 20 65
e 20 69
e 20 90
e 20 95
e 20 99
e 21 39
e 21 47
e 21 69
e 21 70
e 21 72
e 21 73
e 21 79
e 21 92
e 21 94
e 22 23
e 22 27
e 22 28
e 22 29
e 22 38
e 22 40
e 22 42
e 22 43
e 22 51
e 22 56
e 22 57
e 22 59
e 22 61
e 22 65
e 22 89
e 22 97
e 22 99
e 23 28
e 23 31
e 23 39
e 23 53
e 23 58
e 23 67
e 23 68
e 23 74
e 23 76
e 23 78
e 23 82
e 23 86
e 23 92
e 23 97
e 23 98
e 23 100
e 24 27
e 24 30
e 24 32
e 24 35
e 24 37
e 24 41
e 24 52
e 24 55
e 24 59
e 24 60
e 24 62
e 24 67
e 24 68
e 24 69
e 24 71
e 24 81
e 24 90
e 24 93
e 25 33
e 25 39
e 25 41
e 25 47
e 25 54
e 25 61
e 25 67
e 25 71
e 25 77
e 25 81
e 25 85
e 25 98
e 26 33
e 26 64
e 26 74
e 26 80
e 26 92
e 26 95
e 26 96
e 26 97
e 26 100
e 27 28
e 27 30
e 27 37
e 27 48
e 27 53
e 27 57
e 27 67
e 27 74
e 27 75
e 27 82
e 27 85
e 27 87
e 27 88
e 27 90
e 27 93
e 27 97
e 27 100
e 28 33
e 28 37
e 28 41
e 28 42
e 28 48
e 28 52
e 28 53
e 28 64
e 28 71
e 28 81
e 28 89
e 28 92
e 28 97
e 28 100
e 29 46
e 29 50
e 29 53
e 29 55
e 29 63
e 29 70
e 29 72
e 29 75
e 29 77
e 29 82
e 29 83
e 29 98
e 30 37
e 30 38
e 30 45
e 30 47
e 30 53
e 30 65
e 30 74
e 30 81
e 30 85
e 30 88
e 30 91
e 30 95
e 30 96
e 31 34
e 31 38
e 31 39
e 31 40
e 31 43
e 31 48
e 31 57
e 31 58
e 31 62
e 31 63
e 31 64
e 31 66
e 31 70
e 31 74
e 31 77
e 31 80
e 31 93
e 32 33
e 32 37
e 32 38
e 32 39
e 32 40
e 32 41
e 32 42
e 32 56
e 32 67
e 32 71
e 32 75
e 32 80
e 32 81
e 32 88
e 32 93
e 32 94
e 32 97
e 32 98
e 32 100
e 33 36
e 33 41
e 33 43
e 33 45
e 33 64
e 33 68
e 33 77
e 33 80
e 33 100
e 34 38
e 34 39
e 34 40
e 34 46
e 34 47
e 34 53
e 34 57
e 34 60
e 34 65
e 34 67
e 34 69
e 34 70
e 34 76
e 34 78
e 34 98
e 35 37
e 35 40
e 35 41
e 35 49
e 35 51
e 35 54
e 35 55
e 35 56
e 35 59
e 35 62
e 35 81
e 35 86
e 35 88
e 35 92
e 35 93
e 35 94
e 35 100
e 36 39
e 36 43
e 36 48
e 36 49
e 36 51
e 36 52
e 36 57
e 36 62
e 36 64
e 36 80
e 36 85
e 36 87
e 36 91
e 36 95
e 37 44
e 37 47
e 37 48
e 37 52
e 37 59
e 37 63
e 37 64
e 37 70
e 37 74
e 37 75
e 37 77
e 37 79
e 37 81
e 37 84
e 37 92
e 37 95
e 37 96
e 38 46
e 38 55
e 38 60
e 38 61
e 38 62
e 38 63
e 38 65
e 38 66
e 38 69
e 38 72
e 38 73
e 38 74
e 38 75
e 38 80
e 38 81
e 38 83
e 38 86
e 38 95
e 38 97
e 39 43
e 39 45
e 39 49
e 39 55
e 39 56
e 39 59
e 39 61
e 39 74
e 39 75
e 39 78
e 39 88
e 39 94
e 39 97
e 39 98
e 39 100
e 40 41
e 40 42
e 40 43
e 40 46
e 40 82
e 40 85
e 40 87
e 40 97
e 40 100
e 41 42
e 41 44
e 41 46
e 41 52
e 41 53
e 41 74
e 41 75
e 41 85
e 41 86
e 41 88
e 41 98
e 42 53
e 42 62
e 42 67
e 42 69
e 42 76
e 42 91
e 42 93
e 42 94
e 42 99
e 43 44
e 43 49
e 43 50
e 43 57
e 43 65
e 43 69
e 43 71
e 43 73
e 43 74
e 43 82
e 43 83
e 43 86
e 43 97
e 43 98
e 43 99
e 44 51
e 44 53
e 44 54
e 44 56
e 44 61
e 44 64
e 44 65
e 44 67
e 44 70
e 44 71
e 44 72
e 44 85
e 44 91
e 44 95
e 45 64
e 45 67
e 45 68
e 45 69
e 45 72
e 45 76
e 45 88
e 46 52
e 46 54
e 46 67
e 46 71
e 46 72
e 46 75
e 46 80
e 46 83
e 46 87
e 46 90
e 46 91
e 46 96
e 47 49
e 47 57
e 47 59
e 47 60
e 47 62
e 47 74
e 47 79
e 47 80
e 47 83
e 47 88
e 47 90
e 47 96
e 47 100
e 48 55
e 48 57
e 48 60
e 48 63
e 48 65
e 48 66
e 48 71
e 48 80
e 48 81
e 48 89
e 48 90
e 48 91
e 48 94
e 48 95
e 48 98
e 49 62
e 49 68
e 49 70
e 49 75
e 49 80
e 49 82
e 49 84
e 49 89
e 49 90
e 49 96
e 49 98
e 50 52
e 50 57
e 50 62
e 50 65
e 50 66
e 50 70
e 50 72
e 50 96
e 50 97
e 51 56
e 51 62
e 51 71
e 51 85
e 51 90
e 51 93
e 52 60
e 52 64
e 52 77
e 52 83
e 52 89
e 53 55
e 53 56
e 53 64
e 53 65
e 53 66
e 53 69
e 53 76
e 53 79
e 53 82
e 53 88
e 53 92
e 53 95
e 54 61
e 54 62
e 54 63
e 54 69
e 54 87
e 54 91
e 55 60
e 55 63
e 55 68
e 55 69
e 55 70
e 55 74
e 55 77
e 55 78
e 55 80
e 55 82
e 55 83
e 55 85
e 55 92
e 55 94
e 56 59
e 56 79
e 56 94
e 56 96
e 57 68
e 57 80
e 57 81
e 57 86
e 57 93
e 57 96
e 57 97
e 57 100
e 58 60
e 58 64
e 58 67
e 58 73
e 58 74
e 58 75
e 58 81
e 58 85
e 58 86
e 58 93
e 58 95
e 59 65
e 59 66
e 59 67
e 59 68
e 59 70
e 59 72
e 59 73
e 59 75
e 59 79
e 59 94
e 59 95
e 60 62
e 60 63
e 60 72
e 60 79
e 60 96
e 60 99
e 61 65
e 61 67
e 61 74
e 61 83
e 61 89
e 61 91
e 61 92
e 61 94
e 62 63
e 62 84
e 62 88
e 62 89
e 62 99
e 62 100
e 63 65
e 63 66
e 63 74
e 63 75
e 63 77
e 63 82
e 63 86
e 63 96
e 64 67
e 64 73
e 64 82
e 64 84
e 64 87
e 64 95
e 64 96
e 64 97
e 64 98
e 64 100
e 65 67
e 65 79
e 65 85
e 65 86
e 65 87
e 65 89
e 65 99
e 66 80
e 66 81
e 66 90
e 66 91
e 66 96
e 66 100
e 67 70
e 67 71
e 67 80
e 67 88
e 67 93
e 67 94
e 67 95
e 68 70
e 68 72
e 68 82
e 68 89
e 68 92
e 68 94
e 69 70
e 69 80
e 69 88
e 69 89
e 69 93
e 69 96
e 69 98
e 70 83
e 70 86
e 70 92
e 70 95
e 70 96
e 70 98
e 71 75
e 71 77
e 71 79
e 71 80
e 71 83
e 71 94
e 71 96
e 71 100
e 72 75
e 72 78
e 72 92
e 72 94
e 72 96
e 73 75
e 73 78
e 73 87
e 74 78
e 74 87
e 74 89
e 74 96
e 75 84
e 75 87
e 76 77
e 76 78
e 76 82
e 76 89
e 76 93
e 77 78
e 77 99
e 78 84
e 78 86
e 78 89
e 78 90
e 78 91
e 78 96
e 78 99
e 79 85
e 79 91
e 79 98
e 79 100
e 80 84
e 80 91
e 81 82
e 81 89
e 81 91
e 81 98
e 82 83
e 82 86
e 82 88
e 82 89
e 82 90
e 82 96
e 83 84
e 83 86
e 83 87
e 83 99
e 84 86
e 84 88
e 84 91
e 84 92
e 84 95
e 84 96
e 84 100
e 85 89
e 85 91
e 86 87
e 86 96
e 87 89
e 87 99
e 88 89
e 88 92
e 88 94
e 88 95
e 89 97
e 90 94
e 90 95
e 91 99
e 91 100
e 93 98
e 93 99
e 93 100
e 94 95
e 94 96
e 96 99
e 97 100
